instances/log/3part/art_200_3/art_200_3.txt
DATA_FILE, SOL_FILE, n, d, k: ../instances/data/art_200.txt ../instances/h_sol/art_200_3.txt 200 2 3
LOG_FILE: /home/aelle/mr-sos-dp/instances/log/3part/art_200_3/art_200_3.txt

BRANCH_AND_BOUND_TOL: 0.001
BRANCH_AND_BOUND_PARALLEL: 16
BRANCH_AND_BOUND_MAX_NODES: 200
BRANCH_AND_BOUND_VISITING_STRATEGY: 0

SDP_SOLVER_SESSION_THREADS_ROOT: 16
SDP_SOLVER_SESSION_THREADS: 1
SDP_SOLVER_FOLDER: /home/aelle/mr-sos-dp/SDPNAL
SDP_SOLVER_TOL: 1e-05
SDP_SOLVER_VERBOSE: 0
SDP_SOLVER_MAX_CP_ITER_ROOT: 80
SDP_SOLVER_MAX_CP_ITER: 40
SDP_SOLVER_CP_TOL: 1e-06
SDP_SOLVER_MAX_INEQ: 100000
SDP_SOLVER_INHERIT_PERC: 1
SDP_SOLVER_EPS_INEQ: 0.0001
SDP_SOLVER_EPS_ACTIVE: 1e-06
SDP_SOLVER_MAX_PAIR_INEQ: 100000
SDP_SOLVER_PAIR_PERC: 0.05
SDP_SOLVER_MAX_TRIANGLE_INEQ: 100000
SDP_SOLVER_TRIANGLE_PERC: 0.05

Heuristic MSS: 298.478

Partition 1

|    N| NODE_PAR|    NODE|      LB_PAR|          LB|  FLAG|  TIME (s)| CP_ITER| CP_FLAG|   CP_INEQ|     PAIR  TRIANGLE    CLIQUE|          UB|         GUB|     I      J|     NODE_GAP|          GAP|  OPEN|
|   67|       -1|       0|        -inf|     106.055|     0|         6|       2|      -3|      5180|       90      2749         0|     106.055|    106.055*|    -1     -1|  9.90155e-07|  9.90155e-07|     0|

WALL_TIME: 8 sec
N_NODES: 1
AVG_INEQ: 2839
AVG_CP_ITER: 2
ROOT_GAP: 9.90155e-07
GAP: 0
BEST: 106.055

Partition 2

|    N| NODE_PAR|    NODE|      LB_PAR|          LB|  FLAG|  TIME (s)| CP_ITER| CP_FLAG|   CP_INEQ|     PAIR  TRIANGLE    CLIQUE|          UB|         GUB|     I      J|     NODE_GAP|          GAP|  OPEN|
|   66|       -1|       0|        -inf|     80.4357|     0|         1|       1|       0|      5186|      186      5000         0|     80.4366|    80.4366*|    -1     -1|  1.10016e-05|  1.10016e-05|     0|

WALL_TIME: 2 sec
N_NODES: 1
AVG_INEQ: 5186
AVG_CP_ITER: 1
ROOT_GAP: 1.10016e-05
GAP: 0
BEST: 80.4366

Partition 3

|    N| NODE_PAR|    NODE|      LB_PAR|          LB|  FLAG|  TIME (s)| CP_ITER| CP_FLAG|   CP_INEQ|     PAIR  TRIANGLE    CLIQUE|          UB|         GUB|     I      J|     NODE_GAP|          GAP|  OPEN|
|   67|       -1|       0|        -inf|      98.678|     0|         1|       1|       0|      5125|      125      5000         0|     98.6781|    98.6781*|    -1     -1|  1.53465e-06|  1.53465e-06|     0|

WALL_TIME: 2 sec
N_NODES: 1
AVG_INEQ: 5125
AVG_CP_ITER: 1
ROOT_GAP: 1.53465e-06
GAP: 0
BEST: 98.6781

Generating UB (added constraints 2136)

|    N| NODE_PAR|    NODE|      LB_PAR|          LB|  FLAG|  TIME (s)| CP_ITER| CP_FLAG|   CP_INEQ|     PAIR  TRIANGLE    CLIQUE|          UB|         GUB|     I      J|     NODE_GAP|          GAP|  OPEN|
|    9|       -1|       0|        -inf|     299.479|     0|         0|       0|       0|         0|        0         0         0|      299.48|     299.48*|    -1     -1|  4.31984e-06|  4.31984e-06|     0|

WALL_TIME: 1 sec
N_NODES: 1
AVG_INEQ: 0
AVG_CP_ITER: 0
ROOT_GAP: 4.31984e-06
GAP: 0
BEST: 299.48

--------------------------------------------------------------
Solving with moving ray

Ray 0.85

|    N| NODE_PAR|    NODE|      LB_PAR|          LB|  FLAG|  TIME (s)| CP_ITER| CP_FLAG|   CP_INEQ|     PAIR  TRIANGLE    CLIQUE|          UB|         GUB|     I      J|     NODE_GAP|          GAP|  OPEN|
|   13|       -1|       0|        -inf|     298.972|     0|         2|       2|       3|        74|      4.5        46         0|     298.972|    298.972*|    -1     -1|  4.24072e-07|  4.24072e-07|     0|

WALL_TIME: 3 sec
N_NODES: 1
AVG_INEQ: 50.5
AVG_CP_ITER: 2
ROOT_GAP: 4.24072e-07
GAP: 0
BEST: 298.972

Partition 1

|    N| NODE_PAR|    NODE|      LB_PAR|          LB|  FLAG|  TIME (s)| CP_ITER| CP_FLAG|   CP_INEQ|     PAIR  TRIANGLE    CLIQUE|          UB|         GUB|     I      J|     NODE_GAP|          GAP|  OPEN|
|   69|       -1|       0|        -inf|     21.1655|     0|         0|       0|       0|         0|        0         0         0|     21.1692|    21.1692*|    -1     -1|  0.000175019|  0.000175019|     0|

WALL_TIME: 2 sec
N_NODES: 1
AVG_INEQ: 0
AVG_CP_ITER: 0
ROOT_GAP: 0.000175019
GAP: 0
BEST: 21.1692

Partition 2

|    N| NODE_PAR|    NODE|      LB_PAR|          LB|  FLAG|  TIME (s)| CP_ITER| CP_FLAG|   CP_INEQ|     PAIR  TRIANGLE    CLIQUE|          UB|         GUB|     I      J|     NODE_GAP|          GAP|  OPEN|
|   67|       -1|       0|        -inf|     76.3873|     0|         1|       1|       0|      5143|      143      5000         0|     76.3874|    76.3874*|    -1     -1|  1.64854e-06|  1.64854e-06|     0|

WALL_TIME: 3 sec
N_NODES: 1
AVG_INEQ: 5143
AVG_CP_ITER: 1
ROOT_GAP: 1.64854e-06
GAP: 0
BEST: 76.3874

Partition 3

|    N| NODE_PAR|    NODE|      LB_PAR|          LB|  FLAG|  TIME (s)| CP_ITER| CP_FLAG|   CP_INEQ|     PAIR  TRIANGLE    CLIQUE|          UB|         GUB|     I      J|     NODE_GAP|          GAP|  OPEN|
|   64|       -1|       0|        -inf|     187.831|     0|        10|       2|       0|      5521|      168      5000         0|      187.84|     187.84*|    -1     -1|  4.58471e-05|  4.58471e-05|     0|

WALL_TIME: 12 sec
N_NODES: 1
AVG_INEQ: 5168
AVG_CP_ITER: 2
ROOT_GAP: 4.58471e-05
GAP: 0
BEST: 187.84

Ray 0.7

|    N| NODE_PAR|    NODE|      LB_PAR|          LB|  FLAG|  TIME (s)| CP_ITER| CP_FLAG|   CP_INEQ|     PAIR  TRIANGLE    CLIQUE|          UB|         GUB|     I      J|     NODE_GAP|          GAP|  OPEN|
